
100
24231

681 683
90 92
618 618
840 842
834 835
516 516
630 632
369 370
528 529
108 108
681 683
600 601
282 282
378 379
735 737
444 444
960 960
972 972
837 839
90 92
75 76
288 289
360 362
705 705
825 827
561 563
639 640
573 574
33 35
525 527
213 214
417 417
9 9
654 656
909 911
69 69
579 581
24 24
351 352
159 160
861 861
729 729
897 897
216 218
717 719
699 700
510 511
915 917
624 625
282 283
717 718
480 482
213 214
618 618
48 49
450 450
555 557
3 3
648 649
87 89
648 650
342 342
30 30
999 1000
63 65
156 157
504 506
246 246
531 531
474 475
576 577
543 544
294 295
210 212
693 695
429 429
519 521
915 916
9 9
276 278
564 564
54 54
753 754
402 402
315 317
195 195
966 967
45 47
822 822
705 705
897 898
702 702
345 347
549 550
921 922
39 41
849 850
672 674
195 197
966 967
